c description: Random 3-CNF over 20 variables and 85 clauses
c generator: CNFgen (0.9.2)
c copyright: (C) 2012-2022 Massimo Lauria <massimo.lauria@uniroma1.it>
c url: https://massimolauria.net/cnfgen
c command line: cnfgen --output CNF_4.28/20_bit_85_522.cnf randkcnf 3 20 85
c
p cnf 20 85
-2 5 -19 0
1 16 19 0
-9 12 13 0
-3 10 19 0
-1 -13 -19 0
-9 -14 -20 0
3 11 -16 0
-1 11 -19 0
-3 -8 19 0
10 12 19 0
-3 -16 -19 0
-3 10 -19 0
7 -15 19 0
6 17 20 0
-4 6 11 0
-3 5 18 0
1 2 -20 0
1 14 17 0
-6 10 -14 0
8 11 16 0
5 -13 14 0
-9 -12 13 0
-2 13 -16 0
1 7 -17 0
-2 15 17 0
13 16 20 0
-4 -12 18 0
6 7 -13 0
-4 13 -20 0
4 8 -9 0
-6 9 15 0
-2 -3 -10 0
-11 -17 -20 0
5 7 -16 0
-4 8 -9 0
-8 13 -18 0
-13 -14 -19 0
-2 7 -19 0
11 -12 17 0
1 10 11 0
-5 -6 -20 0
2 5 -13 0
4 -18 20 0
-6 13 -14 0
-2 5 6 0
7 -8 16 0
-11 -13 -16 0
1 9 -18 0
-4 11 15 0
4 -14 19 0
-4 -6 14 0
1 -8 12 0
-1 -6 -10 0
-12 14 18 0
-6 -7 10 0
-4 -15 16 0
-7 12 16 0
1 -2 -8 0
-1 3 4 0
8 -11 -18 0
3 -5 -18 0
-4 -12 17 0
-1 -2 19 0
-3 -6 10 0
5 11 -19 0
-2 -4 7 0
-4 -15 -20 0
-4 12 15 0
14 -16 -19 0
-3 9 16 0
-2 -6 -17 0
11 16 -19 0
1 14 -18 0
3 -14 -18 0
10 -14 -18 0
15 -18 -20 0
-5 -12 -20 0
-3 -8 -10 0
-6 -15 -16 0
12 -15 -20 0
-4 13 17 0
8 12 19 0
4 9 -18 0
14 17 -18 0
-1 -9 16 0
